webassembly/ejemplos_dzn/folder12_json_56.dzn
TERM = { '.', 's(2)', 's(5)', 's(4)', 'in_1', 'local_0', 'local_1', 'in_2', 'in_4', 'in_3', 's(6)', 's(1)', 's(0)', 's(3)', 'in_0'};
null = '.';
s = 12;
n = 10;
ndeps = 0;
max_registers_sz = 5;
NR = 2;
registers = [|'local_0', 's(3)', |'local_1', 's(2)'|];
dependencies = [| |];
GET_ENUM = { GET1, GET2, GET3, GET4, GET5, GET6, GET7};
SET_ENUM = { SET1, SET2, SET3, SET4, SET5, SET6, SET7};
TEE_ENUM = { TEE1, TEE2, TEE3, TEE4, TEE5, TEE6, TEE7};
N = 7;
OP = { 'i32.add_0', 'i32.add_1', 'i32.load8_u_1', 'i32.load_8', 'i32.load16_s_10', 'i32.const_0', 'i32.add_2' };
in_ops = [2, 2, 1, 1, 1, 0, 2 ];
out_ops = [1, 1, 1, 1, 1, 1, 1 ];
in1 = ['s(4)', 'in_0', 's(0)', 'in_2', 'in_3', '.', 's(6)' ];
in2 = ['in_4', 'in_1', '.', '.', '.', '.', 'local_0' ];
in3 = ['.', '.', '.', '.', '.', '.', '.' ];
out1 = ['s(5)', 's(0)', 's(1)', 's(3)', 's(4)', 's(6)', 's(2)' ];
out2 = ['.', '.', '.', '.', '.', '.', '.' ];
out3 = ['.', '.', '.', '.', '.', '.', '.' ];
comm = [true, true, false, false, false, false, true ];
gas = [1, 1, 1, 1, 1, 1, 1 ];
sz = [1, 1, 1, 1, 1, 1, 1 ];
stor = [false, false, false, false, false, false, false ];
lb = [ 1, 1, 1, 1, 1, 1, 1 ];
ub = [ 12, 12, 12, 12, 12, 12, 12 ];
startstack = [ 'in_0', 'in_1', 'in_2', 'in_3', 'in_4', null, null, null, null, null ];
endstack = [ 's(5)', null, null, null, null, null, null, null, null, null ];
